p cnf 253 446               
-3 30 0
-1 29 0
-2 29 0
1 2 -29 0
-29 30 0
3 29 -30 0
30 99 0
-6 32 0
-4 31 0
-5 31 0
4 5 -31 0
-31 32 0
6 31 -32 0
32 43 0
30 43 0
-32 -30 -43 0
43 -55 0
-30 44 0
-32 44 0
30 32 -44 0
44 45 0
-9 34 0
-7 33 0
-8 33 0
7 8 -33 0
-33 34 0
9 33 -34 0
34 45 0
-44 -34 -45 0
45 -55 0
-34 46 0
-44 46 0
34 44 -46 0
46 47 0
-12 36 0
-10 35 0
-11 35 0
10 11 -35 0
-35 36 0
12 35 -36 0
36 47 0
-46 -36 -47 0
47 -55 0
-36 48 0
-46 48 0
36 46 -48 0
48 49 0
-15 38 0
-13 37 0
-14 37 0
13 14 -37 0
-37 38 0
15 37 -38 0
38 49 0
-48 -38 -49 0
49 -55 0
-38 50 0
-48 50 0
38 48 -50 0
50 51 0
-18 40 0
-16 39 0
-17 39 0
16 17 -39 0
-39 40 0
18 39 -40 0
40 51 0
-50 -40 -51 0
51 -55 0
-40 52 0
-50 52 0
40 50 -52 0
52 53 0
-21 42 0
-19 41 0
-20 41 0
19 20 -41 0
-41 42 0
21 41 -42 0
42 53 0
-52 -42 -53 0
53 -55 0
-42 54 0
-52 54 0
42 52 -54 0
54 -55 0
-43 -45 -47 -49 -51 -53 -54 55 0
-55 -30 92 0
55 -22 92 0
-30 -22 92 0
-92 99 0
32 100 0
-55 -32 93 0
55 -23 93 0
-32 -23 93 0
-93 100 0
34 101 0
-55 -34 94 0
55 -24 94 0
-34 -24 94 0
-94 101 0
36 102 0
-55 -36 95 0
55 -25 95 0
-36 -25 95 0
-95 102 0
38 103 0
-55 -38 96 0
55 -26 96 0
-38 -26 96 0
-96 103 0
40 104 0
-55 -40 97 0
55 -27 97 0
-40 -27 97 0
-97 104 0
42 105 0
-55 -42 98 0
55 -28 98 0
-42 -28 98 0
-98 105 0
-99 -100 -101 -102 -103 -104 -105 106 0
-106 -107 0
55 -107 0
-20 72 0
-17 69 0
-14 66 0
-11 63 0
-8 60 0
-2 57 0
-5 57 0
2 5 -57 0
-57 60 0
8 57 -60 0
-60 63 0
11 60 -63 0
-63 66 0
14 63 -66 0
-66 69 0
17 66 -69 0
-69 72 0
20 69 -72 0
-19 71 0
-16 68 0
-13 65 0
-10 62 0
-7 59 0
-1 56 0
-4 56 0
1 4 -56 0
-56 59 0
7 56 -59 0
-59 62 0
10 59 -62 0
-62 65 0
13 62 -65 0
-65 68 0
16 65 -68 0
-68 71 0
19 68 -71 0
-72 -71 -74 0
74 -78 0
-71 75 0
-72 75 0
71 72 -75 0
-21 73 0
-18 70 0
-15 67 0
-12 64 0
-9 61 0
-3 58 0
-6 58 0
3 6 -58 0
-58 61 0
9 58 -61 0
-61 64 0
12 61 -64 0
-64 67 0
15 64 -67 0
-67 70 0
18 67 -70 0
-70 73 0
21 70 -73 0
-75 -73 -76 0
76 -78 0
73 75 -77 0
77 -78 0
78 -107 0
-23 -22 -79 0
79 -91 0
-22 80 0
-23 80 0
22 23 -80 0
-80 -24 -81 0
81 -91 0
-24 82 0
-80 82 0
24 80 -82 0
-82 -25 -83 0
83 -91 0
-25 84 0
-82 84 0
25 82 -84 0
-84 -26 -85 0
85 -91 0
-26 86 0
-84 86 0
26 84 -86 0
-86 -27 -87 0
87 -91 0
-27 88 0
-86 88 0
27 86 -88 0
-88 -28 -89 0
89 -91 0
28 88 -90 0
90 -91 0
91 -107 0
-1 2 -108 0
108 -134 0
-1 -2 109 0
1 2 109 0
-2 2 109 0
-4 5 -110 0
-109 110 -111 0
111 -134 0
-4 -5 112 0
4 5 112 0
-5 5 112 0
-109 -112 113 0
-7 8 -114 0
-113 114 -115 0
115 -134 0
-7 -8 116 0
7 8 116 0
-8 8 116 0
-113 -116 117 0
-10 11 -118 0
-117 118 -119 0
119 -134 0
-10 -11 120 0
10 11 120 0
-11 11 120 0
-117 -120 121 0
-13 14 -122 0
-121 122 -123 0
123 -134 0
-13 -14 124 0
13 14 124 0
-14 14 124 0
-121 -124 125 0
-16 17 -126 0
-125 126 -127 0
127 -134 0
-16 -17 128 0
16 17 128 0
-17 17 128 0
-125 -128 129 0
-19 20 -130 0
-129 130 -131 0
131 -134 0
134 -252 0
-2 3 -135 0
135 -161 0
-2 -3 136 0
2 3 136 0
-3 3 136 0
-5 6 -137 0
-136 137 -138 0
138 -161 0
-5 -6 139 0
5 6 139 0
-6 6 139 0
-136 -139 140 0
-8 9 -141 0
-140 141 -142 0
142 -161 0
-8 -9 143 0
8 9 143 0
-9 9 143 0
-140 -143 144 0
-11 12 -145 0
-144 145 -146 0
146 -161 0
-11 -12 147 0
11 12 147 0
-12 12 147 0
-144 -147 148 0
-14 15 -149 0
-148 149 -150 0
150 -161 0
-14 -15 151 0
14 15 151 0
-15 15 151 0
-148 -151 152 0
-17 18 -153 0
-152 153 -154 0
154 -161 0
-17 -18 155 0
17 18 155 0
-18 18 155 0
-152 -155 156 0
-20 21 -157 0
-156 157 -158 0
158 -161 0
161 -252 0
-22 23 -162 0
162 -176 0
-22 -23 163 0
22 23 163 0
-23 23 163 0
-1 4 -164 0
-163 164 -165 0
165 -176 0
-1 -4 166 0
1 4 166 0
-4 4 166 0
-163 -166 167 0
-2 5 -168 0
-167 168 -169 0
169 -176 0
-2 -5 170 0
2 5 170 0
-5 5 170 0
-167 -170 171 0
-3 6 -172 0
-171 172 -173 0
173 -176 0
176 -252 0
-23 24 -177 0
177 -191 0
-23 -24 178 0
23 24 178 0
-24 24 178 0
-4 7 -179 0
-178 179 -180 0
180 -191 0
-4 -7 181 0
4 7 181 0
-7 7 181 0
-178 -181 182 0
-5 8 -183 0
-182 183 -184 0
184 -191 0
-5 -8 185 0
5 8 185 0
-8 8 185 0
-182 -185 186 0
-6 9 -187 0
-186 187 -188 0
188 -191 0
191 -252 0
-24 25 -192 0
192 -206 0
-24 -25 193 0
24 25 193 0
-25 25 193 0
-7 10 -194 0
-193 194 -195 0
195 -206 0
-7 -10 196 0
7 10 196 0
-10 10 196 0
-193 -196 197 0
-8 11 -198 0
-197 198 -199 0
199 -206 0
-8 -11 200 0
8 11 200 0
-11 11 200 0
-197 -200 201 0
-9 12 -202 0
-201 202 -203 0
203 -206 0
206 -252 0
-25 26 -207 0
207 -221 0
-25 -26 208 0
25 26 208 0
-26 26 208 0
-10 13 -209 0
-208 209 -210 0
210 -221 0
-10 -13 211 0
10 13 211 0
-13 13 211 0
-208 -211 212 0
-11 14 -213 0
-212 213 -214 0
214 -221 0
-11 -14 215 0
11 14 215 0
-14 14 215 0
-212 -215 216 0
-12 15 -217 0
-216 217 -218 0
218 -221 0
221 -252 0
-26 27 -222 0
222 -236 0
-26 -27 223 0
26 27 223 0
-27 27 223 0
-13 16 -224 0
-223 224 -225 0
225 -236 0
-13 -16 226 0
13 16 226 0
-16 16 226 0
-223 -226 227 0
-14 17 -228 0
-227 228 -229 0
229 -236 0
-14 -17 230 0
14 17 230 0
-17 17 230 0
-227 -230 231 0
-15 18 -232 0
-231 232 -233 0
233 -236 0
236 -252 0
-27 28 -237 0
237 -251 0
-27 -28 238 0
27 28 238 0
-28 28 238 0
-16 19 -239 0
-238 239 -240 0
240 -251 0
-16 -19 241 0
16 19 241 0
-19 19 241 0
-238 -241 242 0
-17 20 -243 0
-242 243 -244 0
244 -251 0
-17 -20 245 0
17 20 245 0
-20 20 245 0
-242 -245 246 0
-18 21 -247 0
-246 247 -248 0
248 -251 0
251 -252 0
107 0
252 0
